bacp/03/params/inst-621-1-1058338582.param
language Essence 1.3
$ generated by bacp-gen.pl with seed 1058338582
$ edge probability 0.0428
$ course loads in range 2..7
letting n_courses be 184
letting n_periods be 24
letting load_per_period_lb be 9
letting load_per_period_ub be 33
letting courses_per_period_lb be 4
letting courses_per_period_ub be 8
letting course_load be function(
1 --> 5,
2 --> 4,
3 --> 3,
4 --> 2,
5 --> 3,
6 --> 6,
7 --> 2,
8 --> 5,
9 --> 2,
10 --> 3,
11 --> 3,
12 --> 3,
13 --> 7,
14 --> 2,
15 --> 2,
16 --> 5,
17 --> 7,
18 --> 5,
19 --> 6,
20 --> 3,
21 --> 3,
22 --> 4,
23 --> 3,
24 --> 6,
25 --> 5,
26 --> 3,
27 --> 6,
28 --> 5,
29 --> 2,
30 --> 7,
31 --> 4,
32 --> 5,
33 --> 2,
34 --> 5,
35 --> 6,
36 --> 3,
37 --> 4,
38 --> 3,
39 --> 4,
40 --> 7,
41 --> 6,
42 --> 6,
43 --> 3,
44 --> 2,
45 --> 5,
46 --> 4,
47 --> 2,
48 --> 4,
49 --> 2,
50 --> 3,
51 --> 2,
52 --> 7,
53 --> 6,
54 --> 3,
55 --> 3,
56 --> 4,
57 --> 4,
58 --> 5,
59 --> 2,
60 --> 6,
61 --> 6,
62 --> 4,
63 --> 3,
64 --> 6,
65 --> 6,
66 --> 2,
67 --> 6,
68 --> 4,
69 --> 7,
70 --> 5,
71 --> 5,
72 --> 3,
73 --> 4,
74 --> 2,
75 --> 6,
76 --> 7,
77 --> 6,
78 --> 3,
79 --> 7,
80 --> 4,
81 --> 7,
82 --> 6,
83 --> 7,
84 --> 2,
85 --> 5,
86 --> 5,
87 --> 5,
88 --> 5,
89 --> 6,
90 --> 4,
91 --> 4,
92 --> 7,
93 --> 3,
94 --> 4,
95 --> 3,
96 --> 3,
97 --> 5,
98 --> 6,
99 --> 3,
100 --> 3,
101 --> 3,
102 --> 3,
103 --> 4,
104 --> 4,
105 --> 2,
106 --> 5,
107 --> 6,
108 --> 3,
109 --> 3,
110 --> 3,
111 --> 2,
112 --> 5,
113 --> 7,
114 --> 4,
115 --> 5,
116 --> 5,
117 --> 6,
118 --> 3,
119 --> 2,
120 --> 2,
121 --> 3,
122 --> 4,
123 --> 7,
124 --> 2,
125 --> 6,
126 --> 6,
127 --> 5,
128 --> 2,
129 --> 2,
130 --> 5,
131 --> 7,
132 --> 2,
133 --> 3,
134 --> 2,
135 --> 4,
136 --> 3,
137 --> 3,
138 --> 6,
139 --> 2,
140 --> 4,
141 --> 3,
142 --> 3,
143 --> 4,
144 --> 3,
145 --> 4,
146 --> 3,
147 --> 4,
148 --> 6,
149 --> 5,
150 --> 5,
151 --> 6,
152 --> 4,
153 --> 4,
154 --> 4,
155 --> 6,
156 --> 3,
157 --> 5,
158 --> 3,
159 --> 6,
160 --> 5,
161 --> 3,
162 --> 5,
163 --> 2,
164 --> 3,
165 --> 4,
166 --> 5,
167 --> 3,
168 --> 6,
169 --> 3,
170 --> 2,
171 --> 5,
172 --> 6,
173 --> 6,
174 --> 6,
175 --> 6,
176 --> 4,
177 --> 2,
178 --> 3,
179 --> 6,
180 --> 5,
181 --> 3,
182 --> 2,
183 --> 3,
184 --> 5
)
letting prerequisite be relation (
(32,57),
(37,58),
(36,59),
(37,60),
(20,61),
(24,62),
(34,63),
(31,64),
(31,65),
(19,66),
(41,67),
(36,68),
(20,69),
(27,70),
(22,71),
(46,72),
(6,73),
(36,74),
(30,75),
(18,76),
(32,77),
(11,78),
(36,79),
(18,80),
(56,81),
(9,82),
(36,83),
(36,84),
(48,85),
(13,86),
(49,87),
(53,88),
(15,89),
(22,90),
(45,91),
(40,92),
(20,93),
(6,94),
(9,95),
(25,96),
(22,97),
(52,98),
(26,99),
(37,100),
(4,101),
(6,102),
(52,103),
(56,104),
(25,105),
(14,106),
(2,107),
(20,108),
(22,109),
(1,110),
(52,111),
(9,112),
(21,113),
(24,114),
(10,115),
(9,116),
(35,117),
(18,118),
(49,119),
(35,120),
(35,121),
(38,122),
(6,123),
(52,124),
(21,125),
(46,126),
(26,127),
(19,128),
(32,129),
(33,130),
(22,131),
(50,132),
(39,133),
(30,134),
(7,135),
(120,136),
(89,137),
(100,138),
(105,139),
(90,140),
(90,141),
(85,142),
(62,143),
(112,144),
(88,145),
(95,146),
(128,147),
(91,148),
(68,149),
(78,150),
(106,151),
(133,152),
(111,153),
(69,154),
(118,155),
(100,156),
(86,157),
(129,158),
(93,159),
(109,160),
(114,161),
(107,162),
(96,163),
(70,164),
(102,165),
(67,166),
(85,167),
(76,168),
(76,169),
(80,170),
(73,171),
(107,172),
(76,173),
(97,174),
(130,175),
(85,176),
(128,177),
(67,178),
(105,179),
(75,180),
(102,181),
(135,182),
(101,183),
(105,184),
(128,139),
(19,91),
(116,179),
(70,163),
(117,174),
(44,126),
(132,159),
(13,118),
(7,89),
(12,126),
(129,180),
(89,181),
(40,88),
(16,126),
(56,99),
(116,178),
(122,151),
(8,63),
(124,138),
(40,122),
(52,123),
(130,164),
(15,67),
(36,102),
(5,116),
(36,93),
(130,170),
(2,84),
(4,83),
(67,172),
(4,95),
(54,102),
(26,130),
(131,159),
(8,110),
(32,102),
(34,120),
(89,169),
(22,106),
(3,129),
(97,175),
(35,79),
(2,108),
(16,114),
(46,132),
(132,169),
(42,102),
(57,180),
(4,128),
(121,174),
(5,131),
(120,179),
(32,58),
(82,168),
(54,120),
(75,157),
(65,136),
(103,176),
(56,62),
(50,85),
(20,64),
(18,77),
(77,139),
(95,168),
(100,153),
(27,115),
(11,85),
(72,150),
(54,89),
(60,165),
(42,112),
(65,178),
(32,60),
(79,168),
(124,147),
(50,135),
(22,125),
(73,141),
(115,176),
(48,60),
(49,128),
(112,184),
(109,183),
(52,101),
(29,103),
(85,170),
(31,119),
(104,159),
(58,162),
(8,61),
(17,89),
(62,157),
(107,136),
(120,169),
(63,178),
(71,162),
(22,107),
(36,62),
(61,137),
(57,143),
(36,117),
(39,109),
(96,177),
(24,91),
(122,139),
(103,138),
(19,126),
(34,124),
(15,116),
(35,105),
(61,177),
(109,139),
(109,179),
(56,84),
(63,154),
(82,142),
(94,155),
(85,179),
(3,118),
(75,145),
(80,172),
(9,77),
(8,91),
(119,177),
(75,154),
(65,171),
(128,153),
(56,72),
(11,82),
(18,134),
(106,180),
(52,63),
(56,121),
(34,131),
(57,148),
(32,98),
(56,97),
(51,106),
(105,169),
(130,143),
(110,140),
(43,73),
(47,73),
(112,174),
(47,106),
(84,155),
(19,69),
(40,78),
(124,171),
(14,102),
(53,61),
(11,96),
(51,97),
(104,165),
(95,183),
(47,78),
(118,169),
(67,155),
(88,141),
(30,120),
(111,177),
(24,81),
(113,170),
(123,178),
(28,74),
(50,115),
(51,128),
(16,118),
(5,101),
(36,120),
(9,87),
(43,96),
(60,175),
(20,85),
(106,154),
(26,73),
(67,141),
(76,157),
(81,179),
(24,130),
(49,90),
(58,140),
(44,70),
(1,106),
(12,83),
(11,84),
(35,112),
(15,124),
(88,173),
(59,152),
(3,86),
(83,148),
(53,101),
(74,142),
(61,142),
(71,136),
(108,138),
(21,117),
(108,146),
(22,99),
(65,152),
(113,144),
(97,147),
(121,157),
(35,133),
(54,74),
(26,122),
(56,122),
(129,155),
(15,73),
(14,68),
(51,79),
(80,165),
(88,149),
(8,94),
(44,93),
(113,168),
(81,161),
(9,72),
(44,97),
(8,62),
(80,162),
(39,87),
(86,145),
(60,151),
(71,150),
(107,140)
)

