bacp/param_dec/inst-621-1-1058338582.eprime-param
language ESSENCE' 1.0

letting n_courses be 184
letting n_periods be 24
letting prerequisite_RelationAsSet_Explicit_1 be
        [1, 1, 2, 2, 2, 3, 3, 3, 4, 4, 4, 4, 5, 5, 5, 6, 6, 6, 6, 7, 7, 8, 8, 8, 8, 8, 8, 9, 9, 9, 9, 9, 9, 9, 10, 11,
         11, 11, 11, 11, 12, 12, 13, 13, 14, 14, 14, 15, 15, 15, 15, 15, 16, 16, 16, 17, 18, 18, 18, 18, 18, 19, 19, 19,
         19, 19, 20, 20, 20, 20, 20, 20, 21, 21, 21, 22, 22, 22, 22, 22, 22, 22, 22, 22, 24, 24, 24, 24, 24, 25, 25, 26,
         26, 26, 26, 26, 27, 27, 28, 29, 30, 30, 30, 31, 31, 31, 32, 32, 32, 32, 32, 32, 32, 33, 34, 34, 34, 34, 35, 35,
         35, 35, 35, 35, 35, 36, 36, 36, 36, 36, 36, 36, 36, 36, 36, 36, 37, 37, 37, 38, 39, 39, 39, 40, 40, 40, 40, 41,
         42, 42, 43, 43, 44, 44, 44, 44, 45, 46, 46, 46, 47, 47, 47, 48, 48, 49, 49, 49, 49, 50, 50, 50, 50, 51, 51, 51,
         51, 52, 52, 52, 52, 52, 52, 52, 53, 53, 53, 54, 54, 54, 54, 56, 56, 56, 56, 56, 56, 56, 56, 56, 57, 57, 57, 58,
         58, 59, 60, 60, 60, 61, 61, 61, 62, 62, 63, 63, 65, 65, 65, 65, 67, 67, 67, 67, 67, 68, 69, 70, 70, 71, 71, 71,
         72, 73, 73, 74, 75, 75, 75, 75, 76, 76, 76, 76, 77, 78, 79, 80, 80, 80, 80, 81, 81, 82, 82, 83, 84, 85, 85, 85,
         85, 85, 86, 86, 88, 88, 88, 88, 89, 89, 89, 90, 90, 91, 93, 94, 95, 95, 95, 96, 96, 97, 97, 97, 100, 100, 100,
         101, 102, 102, 103, 103, 104, 104, 105, 105, 105, 105, 106, 106, 106, 107, 107, 107, 107, 108, 108, 109, 109,
         109, 109, 110, 111, 111, 112, 112, 112, 113, 113, 113, 114, 115, 116, 116, 117, 118, 118, 119, 120, 120, 120,
         121, 121, 122, 122, 123, 124, 124, 124, 128, 128, 128, 128, 129, 129, 129, 130, 130, 130, 130, 131, 132, 132,
         133, 135;
             int(1..355)]
letting prerequisite_RelationAsSet_Explicit_2 be
        [106, 110, 84, 107, 108, 86, 118, 129, 83, 95, 101, 128, 101, 116, 131, 73, 94, 102, 123, 89, 135, 61, 62, 63,
         91, 94, 110, 72, 77, 82, 87, 95, 112, 116, 115, 78, 82, 84, 85, 96, 83, 126, 86, 118, 68, 102, 106, 67, 73, 89,
         116, 124, 114, 118, 126, 89, 76, 77, 80, 118, 134, 66, 69, 91, 126, 128, 61, 64, 69, 85, 93, 108, 113, 117,
         125, 71, 90, 97, 99, 106, 107, 109, 125, 131, 62, 81, 91, 114, 130, 96, 105, 73, 99, 122, 127, 130, 70, 115,
         74, 103, 75, 120, 134, 64, 65, 119, 57, 58, 60, 77, 98, 102, 129, 130, 63, 120, 124, 131, 79, 105, 112, 117,
         120, 121, 133, 59, 62, 68, 74, 79, 83, 84, 93, 102, 117, 120, 58, 60, 100, 122, 87, 109, 133, 78, 88, 92, 122,
         67, 102, 112, 73, 96, 70, 93, 97, 126, 91, 72, 126, 132, 73, 78, 106, 60, 85, 87, 90, 119, 128, 85, 115, 132,
         135, 79, 97, 106, 128, 63, 98, 101, 103, 111, 123, 124, 61, 88, 101, 74, 89, 102, 120, 62, 72, 81, 84, 97, 99,
         104, 121, 122, 143, 148, 180, 140, 162, 152, 151, 165, 175, 137, 142, 177, 143, 157, 154, 178, 136, 152, 171,
         178, 141, 155, 166, 172, 178, 149, 154, 163, 164, 136, 150, 162, 150, 141, 171, 142, 145, 154, 157, 180, 157,
         168, 169, 173, 139, 150, 168, 162, 165, 170, 172, 161, 179, 142, 168, 148, 155, 142, 167, 170, 176, 179, 145,
         157, 141, 145, 149, 173, 137, 169, 181, 140, 141, 148, 159, 155, 146, 168, 183, 163, 177, 147, 174, 175, 138,
         153, 156, 183, 165, 181, 138, 176, 159, 165, 139, 169, 179, 184, 151, 154, 180, 136, 140, 162, 172, 138, 146,
         139, 160, 179, 183, 140, 153, 177, 144, 174, 184, 144, 168, 170, 161, 176, 178, 179, 174, 155, 169, 177, 136,
         169, 179, 157, 174, 139, 151, 178, 138, 147, 171, 139, 147, 153, 177, 155, 158, 180, 143, 164, 170, 175, 159,
         159, 169, 152, 182;
             int(1..355)]
letting course_load_Function1D be
        [5, 4, 3, 2, 3, 6, 2, 5, 2, 3, 3, 3, 7, 2, 2, 5, 7, 5, 6, 3, 3, 4, 3, 6, 5, 3, 6, 5, 2, 7, 4, 5, 2, 5, 6, 3, 4,
         3, 4, 7, 6, 6, 3, 2, 5, 4, 2, 4, 2, 3, 2, 7, 6, 3, 3, 4, 4, 5, 2, 6, 6, 4, 3, 6, 6, 2, 6, 4, 7, 5, 5, 3, 4, 2,
         6, 7, 6, 3, 7, 4, 7, 6, 7, 2, 5, 5, 5, 5, 6, 4, 4, 7, 3, 4, 3, 3, 5, 6, 3, 3, 3, 3, 4, 4, 2, 5, 6, 3, 3, 3, 2,
         5, 7, 4, 5, 5, 6, 3, 2, 2, 3, 4, 7, 2, 6, 6, 5, 2, 2, 5, 7, 2, 3, 2, 4, 3, 3, 6, 2, 4, 3, 3, 4, 3, 4, 3, 4, 6,
         5, 5, 6, 4, 4, 4, 6, 3, 5, 3, 6, 5, 3, 5, 2, 3, 4, 5, 3, 6, 3, 2, 5, 6, 6, 6, 6, 4, 2, 3, 6, 5, 3, 2, 3, 5;
             int(1..184)]
letting load_per_period_ub be 33
letting load_per_period_lb be 9
letting courses_per_period_ub be 8
letting courses_per_period_lb be 4
letting fin1 be 355
letting fin2 be 184
letting fin3 be 7
